peakDumbCharging = 14800; 
Machine = anon_enum(16); 
machineSpeed = [3700,3700,3700,3700,3700,3700,3700,3700,3700,3700,3700,3700,3700,3700,3700,3700]; 
machineLoad = [3700,3700,3700,3700,3700,3700,3700,3700,3700,3700,3700,3700,3700,3700,3700,3700]; 
Car = anon_enum(18); 
demandCar = [27280,15800,6080,24280,7440,7320,9280,6600,160,7440,8720,5560,10000,12120,20040,30840,24760,20800]; 
arrivalCar = [74,69,67,66,63,62,59,57,57,49,49,48,48,39,38,36,32,31]; 
departureCar = [84,74,70,74,69,65,63,60,58,52,52,53,52,44,45,50,41,65]; 
